param N:= 6;
param M:= 4;

param C:=
1 1 1500
1 2 1300
1 3 1200
1 4 1000
2 1 1600
2 2 1200
2 3 1200 
2 4 1200
3 1 1800
3 2 1150
3 3 1300
3 4 1150
4 1 1420
4 2 1370
4 3 1320
4 4 1190
5 1 1500
5 2 1180
5 3 1210
5 4 1100
6 1 1500
6 2 1300
6 3 1200
6 4 1150;